27 6
10 16 13 10 11 12
1 0 0 0 0 0 0 3 2 3 4
8 0 0 0 0 6 0 3 5 6 8
4 0 0 0 0 1 0 3 5 7 8
5 0 1 10 0 0 0 1 7
4 0 10 0 0 6 7 3 9 11 12
1 5 5 4 0 0 2 2 10 11
4 0 8 7 0 9 0 2 9 10
10 0 1 10 0 0 9 4 9 10 11 12
1 7 4 10 0 0 3 2 13 15
1 10 9 5 0 10 0 3 13 14 15
1 0 0 0 7 0 4 3 13 14 15
9 0 6 7 0 1 0 4 13 14 15 16
1 0 1 0 10 0 0 3 17 18 19
3 0 0 7 4 0 10 2 17 19
1 5 8 1 3 6 9 1 20
9 0 5 0 0 7 6 3 17 18 19
1 1 10 0 9 0 0 3 21 22 24
1 0 0 0 2 8 0 2 21 24
9 0 0 0 7 1 1 2 22 24
1 10 3 0 10 0 0 1 23
4 1 9 0 0 0 0 1 25
9 10 8 3 0 4 9 1 26
6 2 3 4 0 0 5 1 26
1 9 1 0 0 7 1 1 26
5 0 0 6 0 0 4 1 27
6 0 7 3 5 0 0 1 27
0 0 0 0 0 0 0 0
